75
3
0 3 4 6 7 8 10 11 13 14 15 16 17 18 20 21 22 23 24 25 26 27 28 29 30 32 33 35 38 40 41 42 43 44 45 47 49 51 52 55 57 58 59 60 61 62 63 67 69 70 73 74
1 5 6 9 12 14 17 18 19 21 24 26 28 29 31 32 36 37 40 41 43 44 45 47 48 51 52 53 54 55 56 59 65 67 69 70
2 4 7 8 12 34 35 38 39 41 44 46 50 57 58 64 66 68 69 71 72 73
